
268
500
   350      2
   349      8
   348      3
   347      2
   346      3
   345      1
   344      1
   343      1
   342      6
   341      1
   340      4
   338      3
   337      1
   336      3
   335      1
   334      6
   333      1
   332      6
   329      4
   328      6
   327      3
   326      2
   325      1
   324      1
   323      4
   321      5
   318      4
   317      4
   316      2
   315      3
   314      6
   313      4
   312      1
   311      1
   310      5
   309      4
   308      2
   307      1
   306      4
   305      3
   304      3
   303      4
   301      3
   300      2
   298      2
   297      4
   296      3
   295      4
   293      1
   292      1
   291      1
   290      3
   289      1
   288      5
   287      4
   286      2
   285      1
   284      3
   283      2
   282      2
   281      3
   280      3
   279      1
   277      3
   276      4
   274      4
   273      2
   271      1
   270      5
   269      3
   268      3
   267      3
   266      2
   265      2
   264      2
   263      1
   262      3
   261      7
   260      1
   259      5
   258      5
   257      1
   256      1
   255      1
   254      2
   253      3
   252      1
   251      2
   250      2
   249      3
   248      2
   247      3
   246      2
   245      2
   244      2
   243      1
   241      4
   240      3
   239      1
   237      3
   236      2
   235      5
   234      2
   233      3
   232      6
   231      4
   229      9
   227      4
   226      4
   225      1
   224      2
   223      1
   222      3
   221      2
   220      3
   219      2
   217      2
   215      3
   214      2
   213      4
   212      2
   211      4
   209      4
   208      4
   207      3
   206      2
   205      4
   204      1
   203      3
   202      6
   201      5
   200      2
   198      2
   197      3
   196      2
   195      6
   194      3
   193      3
   192      2
   191      1
   190      5
   189      2
   188      2
   187      4
   185      2
   183      2
   182      2
   181      3
   179      5
   178      1
   177      3
   176      3
   175      2
   174      2
   173      2
   171      1
   170      1
   169      4
   168      5
   167      4
   165      2
   163      3
   162      3
   161      5
   160      3
   159      3
   158      2
   157      2
   156      1
   155      5
   154      1
   153      2
   152      1
   151      1
   150      2
   149      3
   148      1
   147      5
   146      7
   145      3
   144      1
   143      2
   142      2
   141      3
   140      3
   139      2
   138      3
   137      2
   136      2
   135      3
   134      1
   133      3
   132      2
   131      1
   130      5
   129      2
   128      6
   127      3
   126      3
   125      2
   124      4
   123      2
   122      3
   121      2
   120      1
   119      1
   118      3
   117      3
   116      3
   115      3
   114      2
   113      4
   112      4
   111      3
   110      2
   109      1
   108      4
   107      1
   106      3
   103      2
   102      2
   101      1
   100      2
    99      1
    98      4
    97      5
    96      4
    95      1
    94      2
    93      4
    92      4
    90      3
    89      2
    88      5
    87      2
    86      3
    85      3
    84      3
    83      2
    81      3
    79      2
    78      2
    77      1
    76      5
    75      5
    74      6
    73      1
    72      4
    71      1
    70      4
    69      1
    68      4
    67      2
    66      1
    65      4
    64      3
    63      4
    62      3
    60      3
    59      2
    57      1
    56      4
    55      4
    54      2
    53      1
    52      5
    51      3
    50      2




The initial LP solution: time=0.35


File: BPP_750_500_0.1_0.7_4.txt  Instance No. 1
Wed Feb 25 13:49:17 2015

LP solution: lpval=299.864 lpbnd=300

2: 0:1 174:1 obj 1\\
1: 1:1 173:1 obj 1\\
1.152149399252615: 1:1 222:1 266:1 obj 1\\
1: 2:1 172:1 obj 1\\
1.152149399252615: 2:1 220:1 267:1 obj 1\\
2: 3:1 171:1 obj 1\\
1: 4:1 170:1 obj 1\\
1.152149399252615: 4:1 219:1 266:1 obj 1\\
1: 5:1 169:1 obj 1\\
1: 6:1 168:1 obj 1\\
1: 7:1 167:1 obj 1\\
2: 8:1 166:1 obj 1\\
1: 9:1 165:1 obj 1\\
3: 10:1 164:1 obj 1\\
3: 11:1 162:1 obj 1\\
1: 12:1 161:1 obj 1\\
1: 14:1 160:1 obj 1\\
1.203697232172179: 15:1 210:1 265:1 obj 1\\
1.150006263856647: 15:1 230:1 245:1 obj 1\\
1: 16:1 159:1 obj 1\\
5: 17:1 158:1 obj 1\\
1: 18:1 155:1 obj 1\\
2: 20:1 154:1 obj 1\\
2: 21:1 153:1 obj 1\\
1: 22:1 152:1 obj 1\\
1: 23:1 151:1 obj 1\\
3: 24:1 150:1 obj 1\\
5: 25:1 148:1 obj 1\\
2: 26:1 146:1 obj 1\\
2: 27:1 145:1 obj 1\\
2: 29:1 144:1 obj 1\\
1.550759830160205: 30:1 192:1 263:1 obj 1\\
0.6906400200679407: 30:1 208:1 249:1 obj 1\\
0.7680870631808414: 30:1 229:2 obj 1\\
4: 31:1 143:1 obj 1\\
1: 32:1 142:1 obj 1\\
1: 33:1 141:1 obj 1\\
5: 34:1 140:1 obj 1\\
1: 35:1 139:1 obj 1\\
2.699806912376089: 35:1 189:1 261:1 obj 1\\
2: 36:1 138:1 obj 1\\
1: 37:1 137:1 obj 1\\
3: 38:1 136:1 obj 1\\
3: 39:1 135:1 obj 1\\
2: 40:1 134:1 obj 1\\
3: 41:1 133:1 obj 1\\
2: 43:1 131:1 obj 1\\
2: 44:1 129:1 obj 1\\
3: 45:1 128:1 obj 1\\
1: 46:1 127:1 obj 1\\
4: 47:1 126:1 obj 1\\
1: 48:1 124:1 obj 1\\
1: 49:1 123:1 obj 1\\
1: 50:1 122:1 obj 1\\
1: 52:1 121:1 obj 1\\
2: 53:1 120:1 obj 1\\
4: 54:1 119:1 obj 1\\
2: 55:1 118:1 obj 1\\
1: 56:1 117:1 obj 1\\
0.8433576817090216: 57:1 165:1 260:1 obj 1\\
2: 58:1 116:1 obj 1\\
0.07144632007643104: 59:1 169:1 256:1 obj 1\\
2: 60:1 115:1 obj 1\\
3: 61:1 114:1 obj 1\\
1: 62:1 113:1 obj 1\\
1: 63:1 111:1 obj 1\\
2: 64:1 110:1 obj 1\\
4: 65:1 108:1 obj 1\\
2: 66:1 107:1 obj 1\\
1: 67:1 106:1 obj 1\\
3: 69:1 105:1 obj 1\\
3: 70:1 104:1 obj 1\\
3: 71:1 103:1 obj 1\\
2: 72:1 102:1 obj 1\\
2: 73:1 101:1 obj 1\\
2: 74:1 100:1 obj 1\\
1: 75:1 99:1 obj 1\\
1: 76:1 149:1 258:1 obj 1\\
1: 77:1 98:1 obj 1\\
2: 77:1 195:1 214:1 obj 1\\
2.137389997011951: 77:1 196:1 213:1 obj 1\\
0.8626100029880491: 77:1 197:1 212:1 obj 1\\
1: 78:1 97:1 obj 1\\
4: 79:1 96:1 obj 1\\
1.923842728503499: 80:1 163:1 239:1 obj 1\\
1: 81:1 95:1 obj 1\\
1: 82:1 94:1 obj 1\\
1: 83:1 93:1 obj 1\\
2: 84:1 92:1 obj 1\\
3: 85:1 91:1 obj 1\\
1: 86:1 90:1 obj 1\\
2: 87:1 89:1 obj 1\\
1: 88:2 obj 1\\
0.7963027678278213: 89:1 179:1 218:1 obj 1\\
0.1951812423684633: 97:1 137:1 252:1 obj 1\\
0.1521493992526151: 106:1 142:1 238:1 obj 1\\
1.239825987996134: 106:1 169:1 208:1 obj 1\\
0.2451141327804844: 112:2 261:1 obj 1\\
0.5609698538064576: 123:2 237:1 obj 1\\
0.6182067183367181: 124:2 235:1 obj 1\\
0.5108127040456835: 125:2 233:1 obj 1\\
0.06789907739072626: 183:3 242:1 obj 1\\
0.5998742875693148: 185:1 186:2 236:1 obj 1\\
1: 28:1 230:2 obj 1\\
0.894378118555837: 129:2 226:1 obj 1\\
2.152149399252615: 15:1 224:1 251:1 obj 1\\
1: 28:1 200:1 258:1 obj 1\\
1: 30:1 211:1 246:1 obj 1\\
0.7963027678278213: 93:1 183:1 210:1 obj 1\\
1.203697232172179: 121:1 129:1 234:1 obj 1\\
1.595386901973221: 123:1 178:2 obj 1\\
1.62016373086813: 132:1 157:1 191:1 obj 1\\
0.1333752374768951: 203:2 205:1 236:1 263:1 obj 1\\
0.8478506007473849: 2:1 222:1 265:1 obj 1\\
0.4941471047185598: 15:1 217:1 259:1 obj 1\\
1: 19:1 218:1 253:1 obj 1\\
1.071446320076431: 42:1 197:1 247:1 obj 1\\
2.372909974583053: 51:1 169:1 262:1 obj 1\\
0.1270900254169472: 51:1 225:1 260:1 261:1 obj 1\\
1.49414710471856: 64:1 212:2 obj 1\\
0.9203063866990946: 80:1 177:1 227:1 obj 1\\
0.2036972321721787: 93:1 182:1 211:1 obj 1\\
0.449240169839795: 94:1 192:1 200:1 obj 1\\
0.06401855178748803: 104:1 179:1 201:1 obj 1\\
0.196289590857269: 185:2 213:2 obj 1\\
1.847850600747385: 1:1 238:1 251:1 obj 1\\
1.463825873638317: 8:1 229:1 254:1 obj 1\\
0.5345628285481281: 13:1 228:1 249:1 obj 1\\
0.2935557420530527: 29:1 225:1 233:1 obj 1\\
1.928553679923569: 42:1 177:1 265:1 obj 1\\
0.9427820340196055: 46:1 206:1 235:1 obj 1\\
1: 60:1 194:1 232:1 obj 1\\
1.076157271496501: 68:1 175:1 239:1 obj 1\\
0.4426168902792194: 68:1 202:1 216:1 obj 1\\
1: 68:1 209:2 obj 1\\
0.1177967455981487: 80:1 180:1 224:1 obj 1\\
1: 90:1 198:2 obj 1\\
0.07088283858211042: 94:1 147:1 244:1 obj 1\\
0.4798769915780947: 94:1 196:2 obj 1\\
1: 101:1 130:1 255:1 obj 1\\
0.6841350676371001: 105:1 137:1 243:1 obj 1\\
0.6146010757011751: 106:1 113:1 267:1 obj 1\\
1.37983626913187: 107:1 184:1 191:1 obj 1\\
0.9001692347987014: 122:1 178:1 179:1 obj 1\\
0.07969361330090541: 18:1 227:1 243:1 obj 1\\
0.02955229287403116: 19:1 209:1 260:1 obj 1\\
1.056909037586825: 19:1 211:1 259:1 obj 1\\
0.8499937361433532: 30:1 228:1 230:1 obj 1\\
1.057217965980394: 46:1 175:1 262:1 obj 1\\
0.9028560198318596: 53:1 196:1 237:1 obj 1\\
0.3563908934296078: 57:1 178:1 249:1 obj 1\\
0.5058528952814402: 64:1 207:1 217:1 obj 1\\
1: 77:1 160:1 245:1 obj 1\\
0.3798362691318697: 99:1 132:1 254:1 obj 1\\
0.7650578871841769: 104:1 130:1 252:1 obj 1\\
0.3158177173443817: 112:1 169:1 201:1 obj 1\\
2.117796745598149: 135:1 147:1 200:1 obj 1\\
0.5: 141:2 202:1 obj 1\\
1.73019438244939: 1:1 233:1 256:1 obj 1\\
1.536174126361683: 8:1 237:1 245:1 obj 1\\
2.465437171451872: 13:1 233:1 243:1 obj 1\\
0.9427820340196055: 19:1 216:1 255:1 obj 1\\
2.970756635519539: 19:1 225:1 244:1 obj 1\\
1.73324952504621: 27:1 203:1 257:1 obj 1\\
0.2667504749537901: 27:1 224:1 236:1 obj 1\\
0.9279889294264789: 30:1 194:1 261:1 obj 1\\
1: 41:1 216:1 232:1 obj 1\\
1.19974857513863: 63:1 179:1 241:1 obj 1\\
1: 76:1 204:1 206:1 obj 1\\
0.2036972321721787: 89:1 188:1 209:1 obj 1\\
0.3548371655495152: 97:1 177:1 211:1 obj 1\\
1.30429879850523: 104:1 181:1 199:1 obj 1\\
2.418406257954323: 106:1 130:1 249:1 obj 1\\
1: 106:1 152:1 226:1 obj 1\\
0.6201637308681303: 107:1 178:1 197:1 obj 1\\
0.7635865633265638: 124:1 159:1 198:1 obj 1\\
0.8822032544018513: 135:1 163:1 180:1 obj 1\\
0.1853154947450726: 1:1 226:1 262:1 obj 1\\
1: 10:1 229:1 252:1 obj 1\\
1: 15:1 211:1 264:1 obj 1\\
0.2364134366734362: 29:1 198:1 259:1 obj 1\\
0.4700308212735111: 29:1 213:1 245:1 obj 1\\
0.3042987985052301: 38:1 225:2 obj 1\\
1: 40:1 188:1 258:1 obj 1\\
1: 45:1 186:1 254:1 obj 1\\
1.928553679923569: 59:1 178:1 247:1 obj 1\\
2.198359297474179: 68:1 159:1 256:1 obj 1\\
1: 80:1 167:1 236:1 obj 1\\
1.62016373086813: 99:1 184:1 201:1 obj 1\\
0.8113204158197409: 106:1 147:1 231:1 obj 1\\
1: 109:1 183:1 190:1 obj 1\\
2.193954017094649: 112:1 163:1 207:1 obj 1\\
0.3853989242988249: 113:1 161:1 208:1 obj 1\\
1: 117:1 151:1 215:1 obj 1\\
1.796302767827821: 121:1 177:1 182:1 obj 1\\
0.8478506007473849: 122:1 142:1 219:1 obj 1\\
0.6957012014947699: 125:1 157:1 199:1 obj 1\\
0.3426196902010106: 130:2 224:1 obj 1\\
1.156337857229813: 1:1 235:1 254:1 obj 1\\
0.9281522655757248: 1:1 242:1 245:1 obj 1\\
1: 8:1 240:2 obj 1\\
1: 18:1 223:1 247:1 obj 1\\
1: 20:1 225:1 243:1 obj 1\\
0.7667504749537901: 24:1 209:1 257:1 obj 1\\
0.1720478864094829: 26:1 194:1 265:1 obj 1\\
1.057217965980394: 26:1 206:1 255:1 obj 1\\
0.7707341476101226: 26:1 218:1 243:1 obj 1\\
0.2125304210211791: 30:1 197:1 259:1 obj 1\\
0.03976087044735976: 53:1 179:1 252:1 obj 1\\
2.057383109720781: 53:1 202:1 231:1 obj 1\\
0.8002514248613704: 57:1 186:1 241:1 obj 1\\
1: 79:1 156:1 248:1 obj 1\\
0.03805413919925682: 80:1 159:1 244:1 obj 1\\
2: 101:1 187:1 196:1 obj 1\\
0.8666247625231049: 104:1 175:1 205:1 obj 1\\
1.614601075701175: 106:1 161:1 216:1 obj 1\\
1.120683689994437: 122:1 137:1 224:1 obj 1\\
0.2826733904138632: 123:1 125:1 235:1 obj 1\\
1.007546530716147: 129:1 165:1 185:1 obj 1\\
0.1500965438119553: 189:2 200:1 218:1 obj 1\\
0.8478506007473849: 4:1 220:1 265:1 obj 1\\
0.3845565646914813: 17:1 211:1 262:1 obj 1\\
0.6154434353085187: 17:1 228:1 245:1 obj 1\\
1.920306386699095: 18:1 226:1 244:1 obj 1\\
0.2332495250462099: 24:1 197:1 267:1 obj 1\\
0.3001930876239105: 35:1 207:1 245:1 obj 1\\
0.6957012014947699: 38:1 181:1 266:1 obj 1\\
0.5: 51:1 176:1 257:1 obj 1\\
1: 57:1 193:1 236:1 obj 1\\
0.003948657033549186: 63:1 178:1 242:1 obj 1\\
0.7963027678278213: 63:1 188:1 234:1 obj 1\\
0.2828665407501005: 68:1 200:1 218:1 obj 1\\
1: 76:1 157:1 250:1 obj 1\\
1: 80:1 183:1 221:1 obj 1\\
1.449981592082019: 97:1 194:2 obj 1\\
0.3158649323628999: 105:1 117:1 263:1 obj 1\\
0.1490957875748313: 106:1 165:1 212:1 obj 1\\
0.6841350676371001: 117:1 157:1 208:1 obj 1\\
0.1312964744594787: 122:1 130:1 231:1 obj 1\\
0.5: 151:2 176:1 obj 1\\






File: BPP_750_500_0.1_0.7_4.txt  Instance No. 1
Wed Feb 25 13:49:17 2015

LP0 Time: 0.35 IPTime: 0.35 The best integer solution (300):

2: 0:1 174:1 obj 1\\
1: 1:1 173:1 obj 1\\
1: 1:1 222:1 266:1 obj 1\\
1: 2:1 172:1 obj 1\\
1: 2:1 220:1 267:1 obj 1\\
2: 3:1 171:1 obj 1\\
1: 4:1 170:1 obj 1\\
1: 4:1 219:1 266:1 obj 1\\
1: 5:1 169:1 obj 1\\
1: 6:1 168:1 obj 1\\
1: 7:1 167:1 obj 1\\
2: 8:1 166:1 obj 1\\
1: 9:1 165:1 obj 1\\
3: 10:1 164:1 obj 1\\
3: 11:1 162:1 obj 1\\
1: 12:1 161:1 obj 1\\
1: 14:1 160:1 obj 1\\
1: 15:1 210:1 265:1 obj 1\\
1: 15:1 230:1 245:1 obj 1\\
1: 16:1 159:1 obj 1\\
5: 17:1 158:1 obj 1\\
1: 18:1 155:1 obj 1\\
2: 20:1 154:1 obj 1\\
2: 21:1 153:1 obj 1\\
1: 22:1 152:1 obj 1\\
1: 23:1 151:1 obj 1\\
3: 24:1 150:1 obj 1\\
5: 25:1 148:1 obj 1\\
2: 26:1 146:1 obj 1\\
2: 27:1 145:1 obj 1\\
2: 29:1 144:1 obj 1\\
1: 30:1 192:1 263:1 obj 1\\
1: 30:1 208:1 249:1 obj 1\\
1: 30:1 229:2 obj 1\\
4: 31:1 143:1 obj 1\\
1: 32:1 142:1 obj 1\\
1: 33:1 141:1 obj 1\\
5: 34:1 140:1 obj 1\\
1: 35:1 139:1 obj 1\\
3: 35:1 189:1 261:1 obj 1\\
2: 36:1 138:1 obj 1\\
1: 37:1 137:1 obj 1\\
3: 38:1 136:1 obj 1\\
3: 39:1 135:1 obj 1\\
2: 40:1 134:1 obj 1\\
3: 41:1 133:1 obj 1\\
2: 43:1 131:1 obj 1\\
2: 44:1 129:1 obj 1\\
3: 45:1 128:1 obj 1\\
1: 46:1 127:1 obj 1\\
4: 47:1 126:1 obj 1\\
1: 48:1 124:1 obj 1\\
1: 49:1 123:1 obj 1\\
1: 50:1 122:1 obj 1\\
1: 52:1 121:1 obj 1\\
2: 53:1 120:1 obj 1\\
4: 54:1 119:1 obj 1\\
2: 55:1 118:1 obj 1\\
1: 56:1 117:1 obj 1\\
1: 57:1 165:1 260:1 obj 1\\
2: 58:1 116:1 obj 1\\
2: 60:1 115:1 obj 1\\
3: 61:1 114:1 obj 1\\
1: 62:1 113:1 obj 1\\
1: 63:1 111:1 obj 1\\
2: 64:1 110:1 obj 1\\
4: 65:1 108:1 obj 1\\
2: 66:1 107:1 obj 1\\
1: 67:1 106:1 obj 1\\
3: 69:1 105:1 obj 1\\
3: 70:1 104:1 obj 1\\
3: 71:1 103:1 obj 1\\
2: 72:1 102:1 obj 1\\
2: 73:1 101:1 obj 1\\
2: 74:1 100:1 obj 1\\
1: 75:1 99:1 obj 1\\
1: 76:1 149:1 258:1 obj 1\\
1: 77:1 98:1 obj 1\\
2: 77:1 195:1 214:1 obj 1\\
2: 77:1 196:1 213:1 obj 1\\
1: 77:1 197:1 212:1 obj 1\\
1: 78:1 97:1 obj 1\\
4: 79:1 96:1 obj 1\\
2: 80:1 163:1 239:1 obj 1\\
1: 81:1 95:1 obj 1\\
1: 82:1 94:1 obj 1\\
1: 83:1 93:1 obj 1\\
2: 84:1 92:1 obj 1\\
3: 85:1 91:1 obj 1\\
1: 86:1 90:1 obj 1\\
2: 87:1 89:1 obj 1\\
1: 88:2 obj 1\\
1: 89:1 179:1 218:1 obj 1\\
1: 106:1 169:1 208:1 obj 1\\
1: 123:2 237:1 obj 1\\
1: 28:1 230:2 obj 1\\
1: 129:2 226:1 obj 1\\
2: 15:1 224:1 251:1 obj 1\\
1: 28:1 200:1 258:1 obj 1\\
1: 30:1 211:1 246:1 obj 1\\
1: 93:1 183:1 210:1 obj 1\\
1: 121:1 129:1 234:1 obj 1\\
1: 123:1 178:2 obj 1\\
1: 132:1 157:1 191:1 obj 1\\
1: 2:1 222:1 265:1 obj 1\\
1: 19:1 218:1 253:1 obj 1\\
1: 42:1 197:1 247:1 obj 1\\
3: 51:1 169:1 262:1 obj 1\\
1: 64:1 212:2 obj 1\\
1: 80:1 177:1 227:1 obj 1\\
1: 94:1 192:1 200:1 obj 1\\
2: 1:1 238:1 251:1 obj 1\\
1: 8:1 229:1 254:1 obj 1\\
2: 42:1 177:1 265:1 obj 1\\
1: 46:1 206:1 235:1 obj 1\\
1: 60:1 194:1 232:1 obj 1\\
1: 68:1 175:1 239:1 obj 1\\
1: 68:1 209:2 obj 1\\
1: 90:1 198:2 obj 1\\
1: 101:1 130:1 255:1 obj 1\\
1: 105:1 137:1 243:1 obj 1\\
1: 106:1 113:1 267:1 obj 1\\
1: 107:1 184:1 191:1 obj 1\\
1: 122:1 178:1 179:1 obj 1\\
1: 19:1 211:1 259:1 obj 1\\
1: 30:1 228:1 230:1 obj 1\\
1: 46:1 175:1 262:1 obj 1\\
1: 53:1 196:1 237:1 obj 1\\
1: 64:1 207:1 217:1 obj 1\\
1: 77:1 160:1 245:1 obj 1\\
1: 104:1 130:1 252:1 obj 1\\
2: 135:1 147:1 200:1 obj 1\\
2: 1:1 233:1 256:1 obj 1\\
1: 8:1 237:1 245:1 obj 1\\
2: 13:1 233:1 243:1 obj 1\\
1: 19:1 216:1 255:1 obj 1\\
3: 19:1 225:1 244:1 obj 1\\
2: 27:1 203:1 257:1 obj 1\\
1: 30:1 194:1 261:1 obj 1\\
1: 41:1 216:1 232:1 obj 1\\
1: 63:1 179:1 241:1 obj 1\\
1: 76:1 204:1 206:1 obj 1\\
1: 104:1 181:1 199:1 obj 1\\
2: 106:1 130:1 249:1 obj 1\\
1: 106:1 152:1 226:1 obj 1\\
1: 107:1 178:1 197:1 obj 1\\
1: 124:1 159:1 198:1 obj 1\\
1: 135:1 163:1 180:1 obj 1\\
1: 10:1 229:1 252:1 obj 1\\
1: 15:1 211:1 264:1 obj 1\\
1: 29:1 213:1 245:1 obj 1\\
1: 40:1 188:1 258:1 obj 1\\
1: 45:1 186:1 254:1 obj 1\\
2: 59:1 178:1 247:1 obj 1\\
2: 68:1 159:1 256:1 obj 1\\
1: 80:1 167:1 236:1 obj 1\\
2: 99:1 184:1 201:1 obj 1\\
1: 106:1 147:1 231:1 obj 1\\
1: 109:1 183:1 190:1 obj 1\\
2: 112:1 163:1 207:1 obj 1\\
1: 117:1 151:1 215:1 obj 1\\
2: 121:1 177:1 182:1 obj 1\\
1: 122:1 142:1 219:1 obj 1\\
1: 125:1 157:1 199:1 obj 1\\
1: 1:1 235:1 254:1 obj 1\\
1: 1:1 242:1 245:1 obj 1\\
1: 8:1 240:2 obj 1\\
1: 18:1 223:1 247:1 obj 1\\
1: 20:1 225:1 243:1 obj 1\\
1: 24:1 209:1 257:1 obj 1\\
1: 26:1 206:1 255:1 obj 1\\
1: 26:1 218:1 243:1 obj 1\\
2: 53:1 202:1 231:1 obj 1\\
1: 57:1 186:1 241:1 obj 1\\
1: 79:1 156:1 248:1 obj 1\\
2: 101:1 187:1 196:1 obj 1\\
1: 104:1 175:1 205:1 obj 1\\
2: 106:1 161:1 216:1 obj 1\\
1: 122:1 137:1 224:1 obj 1\\
1: 129:1 165:1 185:1 obj 1\\
1: 4:1 220:1 265:1 obj 1\\
1: 17:1 228:1 245:1 obj 1\\
2: 18:1 226:1 244:1 obj 1\\
1: 38:1 181:1 266:1 obj 1\\
1: 57:1 193:1 236:1 obj 1\\
1: 63:1 188:1 234:1 obj 1\\
1: 76:1 157:1 250:1 obj 1\\
1: 80:1 183:1 221:1 obj 1\\
1: 97:1 194:2 obj 1\\
1: 117:1 157:1 208:1 obj 1\\
1: 8:1 233:1 249:1 obj 1\\
1: 15:1 212:1 263:1 obj 1\\
1: 13:1 224:1 254:1 obj 1\\
1: 97:1 130:1 259:1 obj 1\\
1: 68:1 191:1 225:1 obj 1\\
1: 132:1 141:1 211:1 obj 1\\
1: 112:1 176:1 194:1 obj 1\\
1: 124:1 125:1 235:1 obj 1\\
1: 178:1 185:1 196:1 236:1 obj 1\\
1: 151:1 186:1 202:1 obj 1\\



The last LP solution 


File: BPP_750_500_0.1_0.7_4.txt  Instance No. 1
Wed Feb 25 13:49:17 2015

LP solution: lpval=299.864 lpbnd=300

2: 0:1 174:1 obj 1\\
1: 1:1 173:1 obj 1\\
1.152149399252615: 1:1 222:1 266:1 obj 1\\
1: 2:1 172:1 obj 1\\
1.152149399252615: 2:1 220:1 267:1 obj 1\\
2: 3:1 171:1 obj 1\\
1: 4:1 170:1 obj 1\\
1.152149399252615: 4:1 219:1 266:1 obj 1\\
1: 5:1 169:1 obj 1\\
1: 6:1 168:1 obj 1\\
1: 7:1 167:1 obj 1\\
2: 8:1 166:1 obj 1\\
1: 9:1 165:1 obj 1\\
3: 10:1 164:1 obj 1\\
3: 11:1 162:1 obj 1\\
1: 12:1 161:1 obj 1\\
1: 14:1 160:1 obj 1\\
1.203697232172179: 15:1 210:1 265:1 obj 1\\
1.150006263856647: 15:1 230:1 245:1 obj 1\\
1: 16:1 159:1 obj 1\\
5: 17:1 158:1 obj 1\\
1: 18:1 155:1 obj 1\\
2: 20:1 154:1 obj 1\\
2: 21:1 153:1 obj 1\\
1: 22:1 152:1 obj 1\\
1: 23:1 151:1 obj 1\\
3: 24:1 150:1 obj 1\\
5: 25:1 148:1 obj 1\\
2: 26:1 146:1 obj 1\\
2: 27:1 145:1 obj 1\\
2: 29:1 144:1 obj 1\\
1.550759830160205: 30:1 192:1 263:1 obj 1\\
0.6906400200679407: 30:1 208:1 249:1 obj 1\\
0.7680870631808414: 30:1 229:2 obj 1\\
4: 31:1 143:1 obj 1\\
1: 32:1 142:1 obj 1\\
1: 33:1 141:1 obj 1\\
5: 34:1 140:1 obj 1\\
1: 35:1 139:1 obj 1\\
2.699806912376089: 35:1 189:1 261:1 obj 1\\
2: 36:1 138:1 obj 1\\
1: 37:1 137:1 obj 1\\
3: 38:1 136:1 obj 1\\
3: 39:1 135:1 obj 1\\
2: 40:1 134:1 obj 1\\
3: 41:1 133:1 obj 1\\
2: 43:1 131:1 obj 1\\
2: 44:1 129:1 obj 1\\
3: 45:1 128:1 obj 1\\
1: 46:1 127:1 obj 1\\
4: 47:1 126:1 obj 1\\
1: 48:1 124:1 obj 1\\
1: 49:1 123:1 obj 1\\
1: 50:1 122:1 obj 1\\
1: 52:1 121:1 obj 1\\
2: 53:1 120:1 obj 1\\
4: 54:1 119:1 obj 1\\
2: 55:1 118:1 obj 1\\
1: 56:1 117:1 obj 1\\
0.8433576817090216: 57:1 165:1 260:1 obj 1\\
2: 58:1 116:1 obj 1\\
0.07144632007643104: 59:1 169:1 256:1 obj 1\\
2: 60:1 115:1 obj 1\\
3: 61:1 114:1 obj 1\\
1: 62:1 113:1 obj 1\\
1: 63:1 111:1 obj 1\\
2: 64:1 110:1 obj 1\\
4: 65:1 108:1 obj 1\\
2: 66:1 107:1 obj 1\\
1: 67:1 106:1 obj 1\\
3: 69:1 105:1 obj 1\\
3: 70:1 104:1 obj 1\\
3: 71:1 103:1 obj 1\\
2: 72:1 102:1 obj 1\\
2: 73:1 101:1 obj 1\\
2: 74:1 100:1 obj 1\\
1: 75:1 99:1 obj 1\\
1: 76:1 149:1 258:1 obj 1\\
1: 77:1 98:1 obj 1\\
2: 77:1 195:1 214:1 obj 1\\
2.137389997011951: 77:1 196:1 213:1 obj 1\\
0.8626100029880491: 77:1 197:1 212:1 obj 1\\
1: 78:1 97:1 obj 1\\
4: 79:1 96:1 obj 1\\
1.923842728503499: 80:1 163:1 239:1 obj 1\\
1: 81:1 95:1 obj 1\\
1: 82:1 94:1 obj 1\\
1: 83:1 93:1 obj 1\\
2: 84:1 92:1 obj 1\\
3: 85:1 91:1 obj 1\\
1: 86:1 90:1 obj 1\\
2: 87:1 89:1 obj 1\\
1: 88:2 obj 1\\
0.7963027678278213: 89:1 179:1 218:1 obj 1\\
0.1951812423684633: 97:1 137:1 252:1 obj 1\\
0.1521493992526151: 106:1 142:1 238:1 obj 1\\
1.239825987996134: 106:1 169:1 208:1 obj 1\\
0.2451141327804844: 112:2 261:1 obj 1\\
0.5609698538064576: 123:2 237:1 obj 1\\
0.6182067183367181: 124:2 235:1 obj 1\\
0.5108127040456835: 125:2 233:1 obj 1\\
0.06789907739072626: 183:3 242:1 obj 1\\
0.5998742875693148: 185:1 186:2 236:1 obj 1\\
1: 28:1 230:2 obj 1\\
0.894378118555837: 129:2 226:1 obj 1\\
2.152149399252615: 15:1 224:1 251:1 obj 1\\
1: 28:1 200:1 258:1 obj 1\\
1: 30:1 211:1 246:1 obj 1\\
0.7963027678278213: 93:1 183:1 210:1 obj 1\\
1.203697232172179: 121:1 129:1 234:1 obj 1\\
1.595386901973221: 123:1 178:2 obj 1\\
1.62016373086813: 132:1 157:1 191:1 obj 1\\
0.1333752374768951: 203:2 205:1 236:1 263:1 obj 1\\
0.8478506007473849: 2:1 222:1 265:1 obj 1\\
0.4941471047185598: 15:1 217:1 259:1 obj 1\\
1: 19:1 218:1 253:1 obj 1\\
1.071446320076431: 42:1 197:1 247:1 obj 1\\
2.372909974583053: 51:1 169:1 262:1 obj 1\\
0.1270900254169472: 51:1 225:1 260:1 261:1 obj 1\\
1.49414710471856: 64:1 212:2 obj 1\\
0.9203063866990946: 80:1 177:1 227:1 obj 1\\
0.2036972321721787: 93:1 182:1 211:1 obj 1\\
0.449240169839795: 94:1 192:1 200:1 obj 1\\
0.06401855178748803: 104:1 179:1 201:1 obj 1\\
0.196289590857269: 185:2 213:2 obj 1\\
1.847850600747385: 1:1 238:1 251:1 obj 1\\
1.463825873638317: 8:1 229:1 254:1 obj 1\\
0.5345628285481281: 13:1 228:1 249:1 obj 1\\
0.2935557420530527: 29:1 225:1 233:1 obj 1\\
1.928553679923569: 42:1 177:1 265:1 obj 1\\
0.9427820340196055: 46:1 206:1 235:1 obj 1\\
1: 60:1 194:1 232:1 obj 1\\
1.076157271496501: 68:1 175:1 239:1 obj 1\\
0.4426168902792194: 68:1 202:1 216:1 obj 1\\
1: 68:1 209:2 obj 1\\
0.1177967455981487: 80:1 180:1 224:1 obj 1\\
1: 90:1 198:2 obj 1\\
0.07088283858211042: 94:1 147:1 244:1 obj 1\\
0.4798769915780947: 94:1 196:2 obj 1\\
1: 101:1 130:1 255:1 obj 1\\
0.6841350676371001: 105:1 137:1 243:1 obj 1\\
0.6146010757011751: 106:1 113:1 267:1 obj 1\\
1.37983626913187: 107:1 184:1 191:1 obj 1\\
0.9001692347987014: 122:1 178:1 179:1 obj 1\\
0.07969361330090541: 18:1 227:1 243:1 obj 1\\
0.02955229287403116: 19:1 209:1 260:1 obj 1\\
1.056909037586825: 19:1 211:1 259:1 obj 1\\
0.8499937361433532: 30:1 228:1 230:1 obj 1\\
1.057217965980394: 46:1 175:1 262:1 obj 1\\
0.9028560198318596: 53:1 196:1 237:1 obj 1\\
0.3563908934296078: 57:1 178:1 249:1 obj 1\\
0.5058528952814402: 64:1 207:1 217:1 obj 1\\
1: 77:1 160:1 245:1 obj 1\\
0.3798362691318697: 99:1 132:1 254:1 obj 1\\
0.7650578871841769: 104:1 130:1 252:1 obj 1\\
0.3158177173443817: 112:1 169:1 201:1 obj 1\\
2.117796745598149: 135:1 147:1 200:1 obj 1\\
0.5: 141:2 202:1 obj 1\\
1.73019438244939: 1:1 233:1 256:1 obj 1\\
1.536174126361683: 8:1 237:1 245:1 obj 1\\
2.465437171451872: 13:1 233:1 243:1 obj 1\\
0.9427820340196055: 19:1 216:1 255:1 obj 1\\
2.970756635519539: 19:1 225:1 244:1 obj 1\\
1.73324952504621: 27:1 203:1 257:1 obj 1\\
0.2667504749537901: 27:1 224:1 236:1 obj 1\\
0.9279889294264789: 30:1 194:1 261:1 obj 1\\
1: 41:1 216:1 232:1 obj 1\\
1.19974857513863: 63:1 179:1 241:1 obj 1\\
1: 76:1 204:1 206:1 obj 1\\
0.2036972321721787: 89:1 188:1 209:1 obj 1\\
0.3548371655495152: 97:1 177:1 211:1 obj 1\\
1.30429879850523: 104:1 181:1 199:1 obj 1\\
2.418406257954323: 106:1 130:1 249:1 obj 1\\
1: 106:1 152:1 226:1 obj 1\\
0.6201637308681303: 107:1 178:1 197:1 obj 1\\
0.7635865633265638: 124:1 159:1 198:1 obj 1\\
0.8822032544018513: 135:1 163:1 180:1 obj 1\\
0.1853154947450726: 1:1 226:1 262:1 obj 1\\
1: 10:1 229:1 252:1 obj 1\\
1: 15:1 211:1 264:1 obj 1\\
0.2364134366734362: 29:1 198:1 259:1 obj 1\\
0.4700308212735111: 29:1 213:1 245:1 obj 1\\
0.3042987985052301: 38:1 225:2 obj 1\\
1: 40:1 188:1 258:1 obj 1\\
1: 45:1 186:1 254:1 obj 1\\
1.928553679923569: 59:1 178:1 247:1 obj 1\\
2.198359297474179: 68:1 159:1 256:1 obj 1\\
1: 80:1 167:1 236:1 obj 1\\
1.62016373086813: 99:1 184:1 201:1 obj 1\\
0.8113204158197409: 106:1 147:1 231:1 obj 1\\
1: 109:1 183:1 190:1 obj 1\\
2.193954017094649: 112:1 163:1 207:1 obj 1\\
0.3853989242988249: 113:1 161:1 208:1 obj 1\\
1: 117:1 151:1 215:1 obj 1\\
1.796302767827821: 121:1 177:1 182:1 obj 1\\
0.8478506007473849: 122:1 142:1 219:1 obj 1\\
0.6957012014947699: 125:1 157:1 199:1 obj 1\\
0.3426196902010106: 130:2 224:1 obj 1\\
1.156337857229813: 1:1 235:1 254:1 obj 1\\
0.9281522655757248: 1:1 242:1 245:1 obj 1\\
1: 8:1 240:2 obj 1\\
1: 18:1 223:1 247:1 obj 1\\
1: 20:1 225:1 243:1 obj 1\\
0.7667504749537901: 24:1 209:1 257:1 obj 1\\
0.1720478864094829: 26:1 194:1 265:1 obj 1\\
1.057217965980394: 26:1 206:1 255:1 obj 1\\
0.7707341476101226: 26:1 218:1 243:1 obj 1\\
0.2125304210211791: 30:1 197:1 259:1 obj 1\\
0.03976087044735976: 53:1 179:1 252:1 obj 1\\
2.057383109720781: 53:1 202:1 231:1 obj 1\\
0.8002514248613704: 57:1 186:1 241:1 obj 1\\
1: 79:1 156:1 248:1 obj 1\\
0.03805413919925682: 80:1 159:1 244:1 obj 1\\
2: 101:1 187:1 196:1 obj 1\\
0.8666247625231049: 104:1 175:1 205:1 obj 1\\
1.614601075701175: 106:1 161:1 216:1 obj 1\\
1.120683689994437: 122:1 137:1 224:1 obj 1\\
0.2826733904138632: 123:1 125:1 235:1 obj 1\\
1.007546530716147: 129:1 165:1 185:1 obj 1\\
0.1500965438119553: 189:2 200:1 218:1 obj 1\\
0.8478506007473849: 4:1 220:1 265:1 obj 1\\
0.3845565646914813: 17:1 211:1 262:1 obj 1\\
0.6154434353085187: 17:1 228:1 245:1 obj 1\\
1.920306386699095: 18:1 226:1 244:1 obj 1\\
0.2332495250462099: 24:1 197:1 267:1 obj 1\\
0.3001930876239105: 35:1 207:1 245:1 obj 1\\
0.6957012014947699: 38:1 181:1 266:1 obj 1\\
0.5: 51:1 176:1 257:1 obj 1\\
1: 57:1 193:1 236:1 obj 1\\
0.003948657033549186: 63:1 178:1 242:1 obj 1\\
0.7963027678278213: 63:1 188:1 234:1 obj 1\\
0.2828665407501005: 68:1 200:1 218:1 obj 1\\
1: 76:1 157:1 250:1 obj 1\\
1: 80:1 183:1 221:1 obj 1\\
1.449981592082019: 97:1 194:2 obj 1\\
0.3158649323628999: 105:1 117:1 263:1 obj 1\\
0.1490957875748313: 106:1 165:1 212:1 obj 1\\
0.6841350676371001: 117:1 157:1 208:1 obj 1\\
0.1312964744594787: 122:1 130:1 231:1 obj 1\\
0.5: 151:2 176:1 obj 1\\



